(set-info :smt-lib-version 2.6)
(set-logic LRA)
(set-info :source |
   Monniaux, David; Quantifier Elimination by Lazy Model Enumeration, CAV 2010
|)
(set-info :category "random")
; ./Mjollnir_examples/B6/formula_018.m
(set-info :status unsat)
(assert
 (forall ((|v17:0| Real) )(forall ((|v16:1| Real) )(forall ((|v15:2| Real) )(forall ((|v14:3| Real) )(forall ((|v13:4| Real) )(forall ((|v12:5| Real) )(exists ((|v11:6| Real) )(exists ((|v10:7| Real) )(exists ((|v9:8| Real) )(exists ((|v8:9| Real) )(exists ((|v7:10| Real) )(exists ((|v6:11| Real) )(forall ((|v5:12| Real) )(forall ((|v4:13| Real) )(forall ((|v3:14| Real) )(forall ((|v2:15| Real) )(forall ((|v1:16| Real) )(forall ((|v0:17| Real) )(let ((?x79 (- 13)))
(let ((?x199 13))
(let ((?x200 (* ?x199 |v2:15|)))
(let ((?x141 5))
(let ((?x300 (* ?x141 |v7:10|)))
(let ((?x72 3))
(let ((?x1133 (* ?x72 |v4:13|)))
(let ((?x1367 (+ (+ (* (- 4) |v12:5|) (* (- 15) |v4:13|)) (* ?x199 |v16:1|))))
(let (($x1373 (<= (+ (+ (+ (+ ?x1367 ?x1133) ?x300) ?x200) (* (- 19) |v5:12|)) ?x79)))
(let ((?x190 7))
(let ((?x18 12))
(let ((?x738 (* ?x18 |v13:4|)))
(let ((?x34 (- 5)))
(let ((?x1207 (* ?x34 |v14:3|)))
(let ((?x117 (- 11)))
(let ((?x863 (* ?x117 |v4:13|)))
(let ((?x415 10))
(let ((?x1315 (* ?x415 |v14:3|)))
(let ((?x1358 (+ (+ (+ (* (- 6) |v1:16|) (* 0 |v0:17|)) ?x1315) (* 20 |v5:12|))))
(let ((?x23 (- 10)))
(let ((?x1279 (* ?x117 |v14:3|)))
(let ((?x135 11))
(let ((?x317 (* ?x135 |v3:14|)))
(let ((?x1347 (+ (+ (+ (* ?x117 |v0:17|) (* ?x34 |v11:6|)) (* (- 9) |v3:14|)) ?x317)))
(let ((?x47 (- 19)))
(let ((?x68 15))
(let ((?x975 (* ?x68 |v5:12|)))
(let ((?x209 (- 15)))
(let ((?x310 (* ?x209 |v0:17|)))
(let ((?x297 (* ?x199 |v5:12|)))
(let ((?x1338 (+ (+ (+ (* ?x117 |v17:0|) (* ?x117 |v13:4|)) (* (- 14) |v2:15|)) ?x297)))
(let (($x1353 (and (<= (+ (+ (+ ?x1338 ?x310) ?x975) (* 4 |v1:16|)) ?x47) (<= (+ (+ (+ ?x1347 (* ?x47 |v14:3|)) ?x1279) |v2:15|) ?x23))))
(let ((?x44 6))
(let ((?x69 (* ?x68 |v1:16|)))
(let ((?x288 (* ?x79 |v3:14|)))
(let ((?x10 4))
(let ((?x11 (* ?x10 |v16:1|)))
(let ((?x281 (- 12)))
(let ((?x606 (* ?x281 |v13:4|)))
(let ((?x1329 (+ (+ (+ (* (- 4) |v17:0|) (* (- 1) |v5:12|)) ?x606) ?x11)))
(let (($x1376 (and (<= (+ (+ (+ ?x1329 ?x288) (* 9 |v0:17|)) ?x69) ?x44) (and $x1353 (or (<= (+ (+ (+ ?x1358 ?x863) ?x1207) ?x738) ?x190) $x1373)))))
(let ((?x368 (- 14)))
(let ((?x814 (* ?x368 |v12:5|)))
(let ((?x105 18))
(let ((?x705 (* ?x105 |v3:14|)))
(let ((?x1065 (* ?x105 |v15:2|)))
(let ((?x148 (- 1)))
(let ((?x149 (* ?x148 |v6:11|)))
(let ((?x1318 (+ (+ (+ (+ (* (- 2) |v3:14|) (* ?x135 |v4:13|)) ?x1315) ?x149) ?x1065)))
(let ((?x13 (- 4)))
(let ((?x307 19))
(let ((?x437 (* ?x307 |v17:0|)))
(let ((?x794 (* ?x18 |v3:14|)))
(let ((?x475 (* ?x415 |v17:0|)))
(let ((?x87 2))
(let ((?x283 (* ?x87 |v4:13|)))
(let ((?x1306 (+ (+ (+ (* (- 7) |v13:4|) (* 17 |v1:16|)) ?x283) ?x475)))
(let (($x1322 (or (<= (+ (+ (+ ?x1306 ?x794) (* (- 6) |v17:0|)) ?x437) ?x13) (<= (+ (+ ?x1318 ?x705) ?x814) ?x10))))
(let ((?x109 (- 20)))
(let ((?x842 (* ?x109 |v9:8|)))
(let ((?x187 (- 7)))
(let ((?x887 (* ?x187 |v12:5|)))
(let ((?x1297 (+ (+ (+ (* ?x18 |v11:6|) (* ?x199 |v10:7|)) (* ?x109 |v17:0|)) (* ?x199 |v11:6|))))
(let ((?x124 20))
(let ((?x1284 (+ (+ (+ ?x1279 (* ?x148 |v13:4|)) (* 8 |v6:11|)) (* ?x135 |v0:17|))))
(let (($x1291 (<= (+ (+ (+ ?x1284 (* ?x190 |v2:15|)) (* ?x18 |v16:1|)) (* ?x72 |v16:1|)) ?x124)))
(let (($x1323 (and (or $x1291 (<= (+ (+ (+ ?x1297 ?x887) ?x842) (* ?x190 |v0:17|)) ?x13)) $x1322)))
(let ((?x163 (- 2)))
(let ((?x881 (* ?x281 |v12:5|)))
(let ((?x683 (* ?x163 |v2:15|)))
(let ((?x55 0))
(let ((?x222 (* ?x55 |v7:10|)))
(let ((?x1271 (+ (+ (+ (* (- 6) |v3:14|) (* (- 16) |v1:16|)) ?x222) (* ?x87 |v3:14|))))
(let ((?x469 (* ?x124 |v11:6|)))
(let ((?x219 (- 16)))
(let ((?x624 (* ?x219 |v11:6|)))
(let ((?x980 (* ?x148 |v4:13|)))
(let ((?x1261 (+ (+ (* (- 9) |v4:13|) (* ?x209 |v15:2|)) (* 9 |v11:6|))))
(let (($x1277 (and (<= (+ (+ (+ (+ ?x1261 ?x980) ?x624) (* ?x148 |v0:17|)) ?x469) ?x117) (<= (+ (+ (+ ?x1271 (* ?x368 |v5:12|)) ?x683) ?x881) ?x163))))
(let ((?x119 (* ?x117 |v11:6|)))
(let ((?x1251 (+ (+ (+ (* ?x209 |v2:15|) (* ?x163 |v7:10|)) (* ?x190 |v10:7|)) (* ?x187 |v9:8|))))
(let ((?x176 (- 18)))
(let ((?x243 (* ?x176 |v17:0|)))
(let ((?x1002 (* ?x135 |v14:3|)))
(let ((?x298 (* ?x219 |v0:17|)))
(let ((?x1244 (+ (+ (+ (+ (* ?x44 |v13:4|) (* ?x117 |v8:9|)) (* ?x72 |v3:14|)) |v1:16|) ?x298)))
(let (($x1257 (or (<= (+ (+ ?x1244 ?x1002) ?x243) ?x368) (<= (+ (+ (+ ?x1251 ?x119) |v4:13|) (* ?x23 |v5:12|)) ?x209))))
(let ((?x96 (- 3)))
(let ((?x807 (* ?x13 |v7:10|)))
(let ((?x1233 (+ (+ (+ (* ?x10 |v0:17|) (* (- 6) |v14:3|)) (* ?x176 |v0:17|)) (* ?x281 |v4:13|))))
(let ((?x30 (- 8)))
(let ((?x589 (* ?x30 |v6:11|)))
(let ((?x290 (* ?x190 |v11:6|)))
(let ((?x250 8))
(let ((?x406 (* ?x250 |v6:11|)))
(let ((?x447 (* ?x117 |v16:1|)))
(let ((?x1223 (+ (+ (+ (* ?x87 |v8:9|) (* ?x209 |v9:8|)) (* (- 6) |v3:14|)) ?x447)))
(let ((?x598 (* ?x148 |v2:15|)))
(let ((?x97 (* ?x96 |v4:13|)))
(let ((?x152 14))
(let ((?x1069 (* ?x152 |v17:0|)))
(let ((?x1213 (+ (+ (+ (+ (* ?x30 |v12:5|) (* 16 |v15:2|)) ?x1069) |v17:0|) ?x97)))
(let ((?x142 (* ?x141 |v4:13|)))
(let ((?x1205 (+ (+ (+ (+ (* ?x281 |v2:15|) (* ?x34 |v10:7|)) ?x119) (* ?x72 |v3:14|)) (* 17 |v14:3|))))
(let (($x1218 (and (<= (+ (+ ?x1205 ?x142) ?x1207) ?x68) (<= (+ (+ ?x1213 ?x598) (* ?x72 |v17:0|)) ?x163))))
(let ((?x1183 (* ?x281 |v8:9|)))
(let ((?x429 (* ?x190 |v12:5|)))
(let ((?x1192 (+ (+ (* 17 |v4:13|) (* ?x109 |v15:2|)) (* (- 17) |v9:8|))))
(let ((?x843 (* ?x34 |v4:13|)))
(let ((?x674 (* ?x209 |v10:7|)))
(let ((?x567 (* ?x79 |v14:3|)))
(let ((?x1184 (+ (+ (+ (* ?x10 |v11:6|) (* (- 9) |v13:4|)) (* ?x117 |v8:9|)) ?x1183)))
(let (($x1199 (and (<= (+ (+ (+ ?x1184 ?x567) ?x674) ?x843) ?x68) (<= (+ (+ (+ (+ ?x1192 (* ?x176 |v8:9|)) ?x1133) ?x429) ?x1183) ?x307))))
(let (($x1240 (or (or (and $x1199 $x1218) (<= (+ (+ (+ ?x1223 ?x406) ?x290) ?x589) ?x18)) (<= (+ (+ (+ ?x1233 (* ?x68 |v3:14|)) ?x807) (* ?x87 |v6:11|)) ?x96))))
(let ((?x269 (* ?x163 |v6:11|)))
(let ((?x1168 (+ (+ (+ (* ?x415 |v11:6|) (* ?x10 |v2:15|)) (* ?x96 |v10:7|)) (* ?x109 |v14:3|))))
(let ((?x132 9))
(let ((?x228 (* ?x132 |v12:5|)))
(let ((?x1158 (+ (+ (+ (+ (* ?x30 |v16:1|) ?x1002) (* ?x307 |v5:12|)) (* ?x135 |v1:16|)) (* ?x72 |v11:6|))))
(let (($x1174 (and (<= (+ (+ ?x1158 (* (- 17) |v14:3|)) ?x228) ?x87) (<= (+ (+ (+ ?x1168 ?x269) ?x269) (* ?x44 |v0:17|)) ?x187))))
(let ((?x144 (* ?x30 |v5:12|)))
(let ((?x501 (* ?x132 |v7:10|)))
(let ((?x1148 (+ (+ (+ (+ (* ?x72 |v12:5|) (* ?x23 |v1:16|)) (* ?x209 |v17:0|)) ?x501) (* (- 17) |v15:2|))))
(let ((?x441 (* ?x152 |v1:16|)))
(let ((?x31 (* ?x30 |v12:5|)))
(let ((?x1138 (+ (+ (+ (+ (+ |v12:5| (* ?x117 |v13:4|)) ?x1133) (* ?x55 |v0:17|)) ?x31) ?x441)))
(let (($x1153 (and (<= (+ ?x1138 (* ?x124 |v4:13|)) ?x87) (<= (+ (+ ?x1148 (* ?x96 |v5:12|)) ?x144) ?x34))))
(let ((?x857 (* ?x72 |v14:3|)))
(let ((?x1124 (+ (+ (+ (+ (* ?x415 |v16:1|) (* ?x368 |v7:10|)) (* ?x415 |v0:17|)) |v3:14|) (* ?x132 |v17:0|))))
(let ((?x203 17))
(let ((?x443 (* ?x203 |v11:6|)))
(let ((?x182 (* ?x30 |v11:6|)))
(let ((?x1112 (+ (+ (+ (+ (* (- 9) |v12:5|) ?x475) (* ?x307 |v7:10|)) ?x182) (* ?x281 |v11:6|))))
(let (($x1129 (or (<= (+ (+ ?x1112 (* ?x209 |v12:5|)) ?x443) ?x135) (<= (+ (+ ?x1124 ?x857) (* ?x68 |v8:9|)) ?x68))))
(let ((?x402 (* ?x281 |v7:10|)))
(let ((?x220 (* ?x219 |v10:7|)))
(let ((?x463 (* ?x117 |v3:14|)))
(let ((?x1099 (+ (+ (+ (* ?x132 |v1:16|) (* (- 9) |v0:17|)) (* ?x34 |v2:15|)) ?x463)))
(let ((?x970 (* ?x187 |v17:0|)))
(let ((?x184 (* ?x87 |v17:0|)))
(let ((?x1089 (+ (+ (+ (+ (* ?x135 |v13:4|) (* ?x415 |v12:5|)) (* ?x135 |v5:12|)) ?x184) (* ?x199 |v4:13|))))
(let (($x1105 (and (<= (+ (+ ?x1089 (* ?x47 |v8:9|)) ?x970) ?x13) (<= (+ (+ (+ ?x1099 ?x220) (* ?x68 |v14:3|)) ?x402) ?x47))))
(let ((?x520 (* ?x219 |v4:13|)))
(let ((?x750 (* ?x34 |v13:4|)))
(let ((?x340 (* ?x176 |v6:11|)))
(let ((?x1075 (+ (+ (+ (* ?x152 |v10:7|) (* ?x79 |v7:10|)) (* ?x117 |v5:12|)) (* ?x187 |v10:7|))))
(let ((?x1063 (* ?x87 |v8:9|)))
(let ((?x1064 (+ (+ (+ (* ?x209 |v15:2|) (* 16 |v5:12|)) (* ?x18 |v17:0|)) ?x1063)))
(let (($x1080 (and (<= (+ (+ (+ ?x1064 ?x1065) (* (- 6) |v10:7|)) ?x1069) ?x152) (<= (+ (+ (+ ?x1075 ?x340) ?x750) ?x520) ?x132))))
(let ((?x118 (* ?x117 |v17:0|)))
(let ((?x376 (* ?x368 |v15:2|)))
(let ((?x385 (* ?x190 |v14:3|)))
(let ((?x1053 (+ (+ (+ (+ (* ?x163 |v11:6|) (* ?x79 |v11:6|)) (* ?x72 |v7:10|)) ?x385) ?x376)))
(let ((?x759 (* ?x163 |v14:3|)))
(let ((?x1043 (+ (+ (+ (+ (* ?x44 |v13:4|) ?x980) (* ?x209 |v16:1|)) (* ?x44 |v10:7|)) ?x441)))
(let (($x1058 (or (<= (+ (+ ?x1043 ?x759) (* ?x281 |v1:16|)) ?x109) (<= (+ (+ ?x1053 (* ?x187 |v5:12|)) ?x118) ?x148))))
(let ((?x505 (* ?x18 |v7:10|)))
(let ((?x861 (* ?x87 |v7:10|)))
(let ((?x1031 (+ (+ (+ (* ?x307 |v13:4|) (* ?x10 |v11:6|)) (* ?x219 |v14:3|)) (* ?x18 |v12:5|))))
(let ((?x869 (* ?x176 |v1:16|)))
(let ((?x331 (* ?x47 |v2:15|)))
(let ((?x1022 (+ (+ (+ (+ (* ?x124 |v0:17|) (* ?x117 |v15:2|)) (* ?x141 |v11:6|)) ?x331) (* ?x47 |v17:0|))))
(let (($x1036 (and (<= (+ (+ ?x1022 (* ?x176 |v14:3|)) ?x869) ?x13) (<= (+ (+ (+ ?x1031 ?x861) |v1:16|) ?x505) ?x47))))
(let ((?x358 (* ?x124 |v15:2|)))
(let ((?x1009 (+ (+ (+ (+ ?x1002 (* ?x47 |v12:5|)) |v9:8|) (* ?x117 |v5:12|)) (* (- 9) |v5:12|))))
(let ((?x378 (* ?x307 |v15:2|)))
(let ((?x106 (* ?x105 |v10:7|)))
(let ((?x996 (+ (+ (+ (* ?x124 |v7:10|) (* ?x55 |v14:3|)) (* (- 9) |v10:7|)) (* ?x10 |v10:7|))))
(let (($x1014 (or (<= (+ (+ (+ ?x996 ?x106) (* ?x13 |v2:15|)) ?x378) ?x219) (<= (+ (+ ?x1009 (* ?x96 |v16:1|)) ?x358) ?x199))))
(let (($x1177 (or (and (and $x1014 $x1036) (or $x1058 $x1080)) (and (and $x1105 $x1129) (and $x1153 $x1174)))))
(let ((?x615 (* ?x34 |v10:7|)))
(let ((?x983 (+ (+ (+ (+ ?x975 (* ?x132 |v10:7|)) (* ?x219 |v15:2|)) ?x980) (* ?x96 |v0:17|))))
(let ((?x80 (* ?x79 |v7:10|)))
(let ((?x174 (* ?x18 |v10:7|)))
(let ((?x717 (* ?x105 |v2:15|)))
(let ((?x969 (+ (+ (+ (* (- 17) |v17:0|) (* 16 |v8:9|)) ?x717) (* ?x55 |v10:7|))))
(let (($x987 (or (<= (+ (+ (+ ?x969 ?x970) ?x174) ?x80) ?x415) (<= (+ (+ ?x983 ?x615) ?x881) ?x132))))
(let ((?x428 (* ?x307 |v5:12|)))
(let ((?x956 (+ (+ (+ ?x857 (* ?x368 |v9:8|)) (* ?x68 |v4:13|)) (* (- 17) |v12:5|))))
(let ((?x730 (* ?x117 |v6:11|)))
(let ((?x668 (* ?x109 |v15:2|)))
(let ((?x947 (+ (+ (+ (+ (* ?x34 |v17:0|) (* ?x176 |v9:8|)) (* ?x96 |v17:0|)) ?x668) ?x730)))
(let (($x963 (and (<= (+ (+ ?x947 |v13:4|) ?x228) ?x163) (<= (+ (+ (+ ?x956 (* ?x10 |v5:12|)) ?x428) (* ?x148 |v11:6|)) ?x23))))
(let ((?x491 (* ?x148 |v17:0|)))
(let ((?x937 (+ (+ (+ (+ ?x475 (* ?x141 |v12:5|)) (* ?x10 |v2:15|)) (* ?x34 |v8:9|)) ?x200)))
(let ((?x40 (- 6)))
(let ((?x677 (* ?x40 |v12:5|)))
(let ((?x927 (+ (+ (+ (+ (* ?x68 |v12:5|) (* ?x199 |v12:5|)) |v17:0|) ?x677) (* ?x163 |v4:13|))))
(let (($x941 (and (<= (+ (+ ?x927 ?x222) (* ?x219 |v16:1|)) ?x219) (<= (+ (+ ?x937 ?x491) ?x317) ?x117))))
(let ((?x328 (* ?x209 |v8:9|)))
(let ((?x779 (* ?x163 |v0:17|)))
(let ((?x916 (+ (+ (+ (+ (* ?x148 |v16:1|) ?x491) (* ?x68 |v17:0|)) (* ?x163 |v12:5|)) ?x779)))
(let ((?x127 (* ?x55 |v4:13|)))
(let ((?x345 (* ?x47 |v13:4|)))
(let ((?x825 (* ?x44 |v13:4|)))
(let ((?x908 (+ (+ (+ (+ (* ?x203 |v2:15|) ?x144) (* ?x96 |v9:8|)) (* ?x105 |v17:0|)) ?x825)))
(let (($x921 (and (<= (+ (+ ?x908 ?x345) ?x127) ?x135) (<= (+ (+ ?x916 (* ?x187 |v6:11|)) ?x328) ?x141))))
(let ((?x236 16))
(let ((?x237 (* ?x236 |v15:2|)))
(let ((?x896 (+ (+ (+ (+ (* ?x68 |v12:5|) (* ?x40 |v0:17|)) (* ?x163 |v5:12|)) ?x237) ?x589)))
(let ((?x886 (+ (+ (+ (+ (* ?x152 |v15:2|) (* ?x47 |v9:8|)) ?x881) (* ?x141 |v8:9|)) (* ?x203 |v10:7|))))
(let (($x901 (and (<= (+ (+ ?x886 ?x887) ?x730) ?x141) (<= (+ (+ ?x896 ?x31) (* ?x79 |v9:8|)) ?x250))))
(let ((?x872 (+ (+ (+ (+ (* ?x30 |v9:8|) (* ?x34 |v17:0|)) (* ?x72 |v8:9|)) ?x869) (* ?x40 |v11:6|))))
(let ((?x860 (+ (+ (+ (+ (* ?x415 |v9:8|) (* ?x281 |v3:14|)) (* ?x236 |v17:0|)) ?x857) (* ?x47 |v3:14|))))
(let (($x877 (or (<= (+ (+ ?x860 ?x861) ?x863) ?x23) (<= (+ (+ ?x872 (* ?x190 |v13:4|)) ?x794) 1))))
(let ((?x362 (* ?x250 |v13:4|)))
(let ((?x848 (+ (+ (+ (+ ?x842 ?x843) (* (- 9) |v3:14|)) (* ?x163 |v12:5|)) ?x362)))
(let ((?x836 (+ (+ (+ (* ?x13 |v8:9|) (* ?x105 |v0:17|)) (* ?x209 |v17:0|)) (* ?x209 |v11:6|))))
(let (($x853 (and (<= (+ (+ (+ ?x836 (* ?x203 |v5:12|)) ?x759) ?x269) ?x68) (<= (+ (+ ?x848 (* ?x23 |v10:7|)) |v14:3|) ?x72))))
(let ((?x632 (* ?x199 |v1:16|)))
(let ((?x823 (+ (+ (+ (* ?x96 |v11:6|) (* ?x10 |v4:13|)) (* ?x219 |v1:16|)) (* ?x281 |v14:3|))))
(let ((?x812 (* ?x203 |v1:16|)))
(let ((?x813 (+ (+ (+ (+ (* ?x30 |v8:9|) ?x807) (* ?x209 |v17:0|)) (* ?x236 |v9:8|)) ?x812)))
(let (($x830 (and (<= (+ (+ ?x813 ?x814) (* ?x141 |v5:12|)) ?x68) (<= (+ (+ (+ ?x823 ?x632) ?x825) (* ?x187 |v16:1|)) ?x55))))
(let (($x990 (and (and (or $x830 $x853) (and $x877 $x901)) (and (and $x921 $x941) (or $x963 $x987)))))
(let (($x1379 (and (and $x990 $x1177) (and $x1240 (or (and (or $x1257 $x1277) $x1323) $x1376)))))
(let ((?x302 (* ?x87 |v2:15|)))
(let ((?x799 (+ (+ (+ (+ (* ?x105 |v5:12|) ?x794) (* ?x209 |v3:14|)) (* ?x219 |v1:16|)) ?x144)))
(let ((?x785 (+ (+ (+ (+ ?x779 (* ?x68 |v17:0|)) (* ?x236 |v9:8|)) (* ?x96 |v8:9|)) ?x441)))
(let ((?x355 (* ?x209 |v3:14|)))
(let ((?x772 (+ (+ (+ (* ?x152 |v3:14|) (* ?x30 |v8:9|)) (* (- 17) |v7:10|)) (* (- 9) |v8:9|))))
(let (($x791 (and (<= (+ (+ (+ ?x772 (* ?x72 |v0:17|)) ?x355) (* ?x135 |v7:10|)) ?x96) (<= (+ (+ ?x785 (* ?x250 |v2:15|)) (* ?x236 |v1:16|)) ?x124))))
(let ((?x164 (* ?x163 |v16:1|)))
(let ((?x24 (* ?x23 |v4:13|)))
(let ((?x762 (+ (+ (+ (+ (+ |v2:15| (* ?x105 |v13:4|)) (* ?x163 |v8:9|)) ?x759) ?x24) ?x164)))
(let ((?x749 (+ (+ (+ (+ (* ?x40 |v13:4|) (* ?x236 |v17:0|)) ?x184) (* ?x72 |v2:15|)) ?x298)))
(let (($x766 (and (<= (+ (+ ?x749 ?x750) (* ?x132 |v8:9|)) ?x415) (<= (+ ?x762 (* (- 9) |v9:8|)) ?x96))))
(let ((?x736 (* ?x307 |v13:4|)))
(let ((?x735 (+ (+ (+ (+ (* ?x190 |v4:13|) ?x730) (* ?x47 |v16:1|)) (* ?x199 |v17:0|)) (* (- 9) |v2:15|))))
(let ((?x386 (* ?x250 |v10:7|)))
(let ((?x534 (* ?x199 |v10:7|)))
(let ((?x725 (+ (+ (+ (+ ?x717 (* ?x87 |v10:7|)) (* ?x23 |v6:11|)) (* ?x13 |v4:13|)) (* ?x18 |v14:3|))))
(let (($x741 (or (<= (+ (+ ?x725 ?x534) ?x386) ?x10) (<= (+ (+ ?x735 ?x736) ?x738) ?x18))))
(let ((?x680 (* ?x68 |v13:4|)))
(let ((?x712 (* ?x135 |v1:16|)))
(let ((?x711 (+ (+ (+ (+ (* ?x109 |v10:7|) ?x705) (* ?x187 |v11:6|)) (* ?x47 |v0:17|)) (* ?x187 |v8:9|))))
(let ((?x697 (+ (+ (+ (* ?x152 |v10:7|) (* ?x18 |v5:12|)) (* ?x23 |v14:3|)) (* ?x141 |v3:14|))))
(let (($x704 (<= (+ (+ (+ ?x697 (* ?x209 |v1:16|)) (* ?x236 |v11:6|)) (* ?x209 |v5:12|)) ?x68)))
(let (($x793 (or (and (or $x704 (<= (+ (+ ?x711 ?x712) ?x680) ?x415)) $x741) (and $x766 $x791))))
(let ((?x686 (+ (+ (+ (+ (+ ?x677 (* ?x148 |v3:14|)) ?x680) (* ?x148 |v3:14|)) ?x683) (* ?x199 |v13:4|))))
(let ((?x673 (+ (+ (+ (+ (+ ?x598 |v8:9|) (* ?x10 |v7:10|)) ?x668) (* ?x176 |v3:14|)) (* ?x96 |v3:14|))))
(let ((?x662 (* ?x281 |v3:14|)))
(let ((?x360 (* ?x96 |v2:15|)))
(let ((?x102 (* ?x40 |v14:3|)))
(let ((?x660 (+ (+ (+ (+ (* ?x117 |v0:17|) (* ?x30 |v15:2|)) (* ?x368 |v6:11|)) ?x102) (* ?x176 |v13:4|))))
(let ((?x91 (- 9)))
(let ((?x650 (* ?x91 |v3:14|)))
(let ((?x471 (* ?x176 |v11:6|)))
(let ((?x511 (* ?x219 |v8:9|)))
(let ((?x647 (+ (+ (+ (* ?x236 |v4:13|) (* ?x105 |v5:12|)) (* ?x87 |v9:8|)) (* ?x79 |v16:1|))))
(let (($x665 (and (<= (+ (+ (+ ?x647 ?x511) ?x471) ?x650) ?x55) (<= (+ (+ ?x660 ?x360) ?x662) ?x23))))
(let (($x691 (and $x665 (or (<= (+ ?x673 ?x674) ?x307) (<= (+ ?x686 (* ?x190 |v15:2|)) ?x209)))))
(let ((?x60 (- 17)))
(let ((?x395 (* ?x109 |v16:1|)))
(let ((?x333 (* ?x60 |v4:13|)))
(let ((?x636 (+ (+ (+ (+ (+ (* ?x135 |v13:4|) (* ?x87 |v13:4|)) ?x632) ?x333) ?x333) ?x222)))
(let ((?x623 (+ (+ (+ (+ ?x615 (* ?x30 |v1:16|)) (* ?x199 |v6:11|)) (* ?x10 |v7:10|)) (* ?x44 |v17:0|))))
(let (($x639 (or (<= (+ (+ ?x623 ?x624) (* ?x135 |v8:9|)) ?x18) (<= (+ ?x636 ?x395) ?x60))))
(let ((?x609 (* ?x30 |v16:1|)))
(let ((?x608 (+ (+ (+ (+ (* ?x236 |v0:17|) (* ?x190 |v8:9|)) (* ?x199 |v17:0|)) ?x606) ?x149)))
(let ((?x595 (+ (+ (+ (+ (* ?x18 |v5:12|) ?x589) (* ?x415 |v5:12|)) (* ?x91 |v7:10|)) (* ?x368 |v8:9|))))
(let (($x614 (or (<= (+ (+ ?x595 (* ?x60 |v8:9|)) ?x598) ?x117) (<= (+ (+ ?x608 ?x609) (* ?x152 |v12:5|)) ?x203))))
(let ((?x322 (* ?x176 |v10:7|)))
(let ((?x286 (* ?x148 |v8:9|)))
(let ((?x582 (+ (+ (+ (+ (* ?x368 |v0:17|) (* ?x219 |v12:5|)) (* ?x148 |v1:16|)) ?x286) (* ?x135 |v11:6|))))
(let ((?x571 (* ?x10 |v11:6|)))
(let ((?x570 (+ (+ (+ (+ (* ?x187 |v11:6|) (* ?x109 |v0:17|)) (* ?x105 |v1:16|)) ?x567) (* ?x23 |v12:5|))))
(let (($x586 (and (<= (+ (+ ?x570 ?x571) (* ?x152 |v9:8|)) ?x109) (<= (+ (+ ?x582 ?x322) |v13:4|) ?x190))))
(let ((?x560 (* ?x187 |v13:4|)))
(let ((?x477 (* ?x117 |v2:15|)))
(let ((?x556 (+ (+ (+ (* ?x203 |v2:15|) (* ?x13 |v0:17|)) (* ?x72 |v9:8|)) (* ?x87 |v14:3|))))
(let ((?x408 (* ?x135 |v12:5|)))
(let ((?x544 (* ?x30 |v9:8|)))
(let ((?x546 (+ (+ (+ (+ (* ?x23 |v17:0|) (* ?x96 |v9:8|)) (* ?x23 |v13:4|)) ?x544) ?x408)))
(let (($x563 (and (<= (+ (+ ?x546 (* ?x40 |v4:13|)) ?x80) ?x87) (<= (+ (+ (+ ?x556 ?x477) (* ?x13 |v14:3|)) ?x560) ?x209))))
(let ((?x532 (* ?x148 |v1:16|)))
(let ((?x529 (+ (+ (+ (* ?x236 |v14:3|) (* ?x250 |v5:12|)) (* ?x79 |v15:2|)) (* ?x55 |v16:1|))))
(let ((?x517 (+ (+ (+ (+ (* ?x60 |v2:15|) ?x511) (* ?x13 |v5:12|)) (* ?x13 |v3:14|)) (* ?x368 |v17:0|))))
(let (($x537 (or (<= (+ (+ ?x517 (* ?x132 |v2:15|)) ?x520) ?x96) (<= (+ (+ (+ ?x529 (* ?x30 |v2:15|)) ?x532) ?x534) ?x152))))
(let ((?x215 (* ?x10 |v2:15|)))
(let ((?x504 (+ (+ (+ (+ (* ?x132 |v6:11|) ?x386) (* ?x96 |v15:2|)) ?x501) (* ?x72 |v6:11|))))
(let ((?x492 (+ (+ (+ (+ (* ?x68 |v11:6|) (* ?x13 |v1:16|)) (* ?x117 |v12:5|)) ?x149) ?x491)))
(let (($x509 (and (<= (+ (+ ?x492 (* ?x72 |v10:7|)) (* ?x44 |v1:16|)) ?x281) (<= (+ (+ ?x504 ?x505) ?x215) ?x199))))
(let (($x805 (or (and (or (and $x509 $x537) (or $x563 $x586)) (or (or $x614 $x639) $x691)) (and $x793 (<= (+ (+ ?x799 (* ?x18 |v1:16|)) ?x302) ?x72)))))
(let ((?x474 (+ (+ (+ (+ (* ?x34 |v1:16|) (* ?x79 |v8:9|)) ?x469) ?x471) (* ?x105 |v14:3|))))
(let ((?x462 (+ (+ (+ (+ (+ |v13:4| (* ?x68 |v0:17|)) |v14:3|) |v9:8|) (* ?x124 |v13:4|)) (* ?x124 |v8:9|))))
(let ((?x450 (+ (+ (+ (+ (+ ?x441 ?x142) ?x443) (* ?x281 |v16:1|)) ?x447) (* ?x281 |v9:8|))))
(let ((?x206 (* ?x68 |v9:8|)))
(let ((?x436 (+ (+ (+ (+ ?x428 ?x429) (* ?x176 |v0:17|)) (* ?x60 |v1:16|)) (* ?x152 |v2:15|))))
(let (($x454 (and (<= (+ (+ ?x436 ?x437) ?x206) ?x307) (<= (+ ?x450 (* ?x10 |v17:0|)) ?x148))))
(let (($x481 (or $x454 (and (<= (+ ?x462 ?x463) ?x60) (<= (+ (+ ?x474 ?x475) ?x477) ?x190)))))
(let ((?x424 (* ?x96 |v8:9|)))
(let ((?x419 (+ (+ (+ (* ?x199 |v14:3|) (* ?x55 |v12:5|)) (* ?x415 |v9:8|)) (* ?x148 |v15:2|))))
(let ((?x405 (+ (+ (+ (+ (* ?x109 |v8:9|) (* ?x190 |v6:11|)) (* ?x135 |v15:2|)) ?x402) (* ?x109 |v12:5|))))
(let ((?x393 (* ?x190 |v10:7|)))
(let ((?x394 (+ (+ (+ (+ (+ ?x385 ?x386) (* ?x10 |v6:11|)) (* ?x281 |v15:2|)) ?x127) ?x393)))
(let (($x427 (and (and (<= (+ ?x394 ?x395) ?x18) (<= (+ (+ ?x405 ?x406) ?x408) ?x187)) (<= (+ (+ (+ ?x419 (* ?x44 |v15:2|)) (* ?x79 |v0:17|)) ?x424) ?x135))))
(let ((?x257 (* ?x141 |v15:2|)))
(let ((?x374 (* ?x13 |v3:14|)))
(let ((?x377 (+ (+ (+ (+ (* ?x30 |v7:10|) (* ?x79 |v10:7|)) (* ?x96 |v15:2|)) ?x374) ?x376)))
(let ((?x366 (* ?x10 |v4:13|)))
(let ((?x364 (* ?x163 |v7:10|)))
(let ((?x367 (+ (+ (+ (+ (+ (+ ?x355 (* ?x141 |v6:11|)) ?x358) ?x360) ?x362) ?x364) ?x366)))
(let ((?x350 (* ?x109 |v0:17|)))
(let ((?x348 (+ (+ (+ (+ ?x340 (* ?x68 |v10:7|)) (* ?x281 |v2:15|)) ?x345) (* ?x34 |v15:2|))))
(let ((?x336 (+ (+ (+ (+ (+ (* ?x34 |v6:11|) ?x328) (* ?x13 |v0:17|)) ?x331) ?x333) (* ?x250 |v14:3|))))
(let (($x353 (and (<= (+ ?x336 (* ?x152 |v5:12|)) ?x18) (<= (+ (+ ?x348 ?x69) ?x350) ?x124))))
(let ((?x319 (* ?x68 |v12:5|)))
(let ((?x320 (+ (+ (+ (+ (* ?x60 |v7:10|) (* ?x152 |v7:10|)) (* ?x163 |v1:16|)) ?x317) ?x319)))
(let ((?x309 (+ (+ (+ (+ (+ ?x297 ?x298) ?x300) ?x302) (* ?x219 |v9:8|)) (* ?x307 |v6:11|))))
(let ((?x293 (+ (+ (+ (+ (+ ?x283 (* ?x190 |v17:0|)) ?x286) ?x288) ?x290) (* ?x176 |v2:15|))))
(let ((?x279 (* ?x13 |v0:17|)))
(let ((?x277 (* ?x60 |v7:10|)))
(let ((?x276 (+ (+ (+ (+ (* ?x176 |v9:8|) ?x269) (* ?x163 |v9:8|)) (* ?x236 |v5:12|)) (* ?x44 |v4:13|))))
(let (($x326 (or (or (<= (+ (+ ?x276 ?x277) ?x279) ?x281) (<= (+ ?x293 ?x288) ?x91)) (or (<= (+ ?x309 ?x310) ?x91) (<= (+ (+ ?x320 ?x286) ?x322) ?x203)))))
(let (($x384 (and $x326 (and $x353 (or (<= ?x367 ?x368) (<= (+ (+ ?x377 ?x378) ?x257) ?x281))))))
(let ((?x255 (* ?x79 |v11:6|)))
(let ((?x258 (+ (+ (+ (+ (* ?x209 |v2:15|) (* ?x250 |v7:10|)) (* ?x91 |v7:10|)) ?x255) ?x257)))
(let ((?x242 (+ (+ (+ (+ (* ?x105 |v1:16|) (* ?x190 |v3:14|)) ?x237) (* ?x23 |v14:3|)) (* ?x47 |v11:6|))))
(let (($x263 (or (<= (+ (+ ?x242 ?x243) (* ?x18 |v4:13|)) ?x141) (<= (+ (+ ?x258 (* ?x236 |v12:5|)) |v0:17|) ?x152))))
(let ((?x227 (+ (+ (+ (+ (+ ?x215 (* ?x199 |v9:8|)) ?x220) ?x222) (* ?x87 |v16:1|)) (* ?x96 |v12:5|))))
(let ((?x153 (* ?x152 |v10:7|)))
(let ((?x211 (+ (+ (+ (+ (+ (* ?x47 |v15:2|) |v2:15|) ?x200) (* ?x203 |v8:9|)) ?x206) (* ?x209 |v13:4|))))
(let (($x264 (or (and (<= (+ ?x211 ?x153) 1) (<= (+ ?x227 ?x228) ?x190)) $x263)))
(let ((?x185 (+ (+ (+ (+ (+ ?x174 (* ?x176 |v4:13|)) |v13:4|) (* ?x96 |v1:16|)) ?x182) ?x184)))
(let ((?x170 (* ?x72 |v8:9|)))
(let ((?x129 (* ?x105 |v9:8|)))
(let ((?x167 (+ (+ (+ (+ (* ?x10 |v15:2|) (* ?x44 |v7:10|)) (* ?x79 |v10:7|)) ?x164) (* ?x135 |v16:1|))))
(let (($x192 (and (<= (+ (+ ?x167 ?x129) ?x170) ?x132) (<= (+ ?x185 (* ?x187 |v15:2|)) ?x190))))
(let ((?x150 (+ (+ (+ (+ (+ |v12:5| (* ?x135 |v15:2|)) (* ?x105 |v12:5|)) ?x142) ?x144) ?x149)))
(let ((?x73 (* ?x72 |v13:4|)))
(let ((?x130 (+ (+ (+ (+ (+ ?x118 ?x119) (* ?x44 |v9:8|)) (* ?x124 |v12:5|)) ?x127) ?x129)))
(let (($x265 (and (or (or (<= (+ ?x130 ?x73) ?x132) (<= (+ ?x150 ?x153) ?x13)) $x192) $x264)))
(let ((?x110 (* ?x109 |v10:7|)))
(let ((?x103 (+ (+ (+ (+ (* ?x91 |v10:7|) (* ?x91 |v1:16|)) ?x97) (* ?x47 |v7:10|)) ?x102)))
(let ((?x35 (* ?x34 |v5:12|)))
(let ((?x85 (+ (+ (+ (+ (+ ?x69 ?x73) (* ?x40 |v3:14|)) ?x80) (* ?x13 |v10:7|)) (* ?x79 |v5:12|))))
(let ((?x56 (* ?x55 |v12:5|)))
(let ((?x53 (+ (+ (+ (+ (* ?x40 |v16:1|) (* ?x44 |v11:6|)) (* ?x47 |v16:1|)) |v0:17|) |v9:8|)))
(let ((?x32 (+ (+ (+ (+ (+ ?x11 (* ?x13 |v15:2|)) (* ?x18 |v5:12|)) ?x24) |v10:7|) ?x31)))
(let (($x64 (or (<= (+ ?x32 ?x35) ?x13) (<= (+ (+ ?x53 ?x56) (* ?x60 |v3:14|)) ?x47))))
(let (($x113 (or (and $x64 (<= (+ ?x85 ?x35) ?x87)) (<= (+ (+ ?x103 ?x106) ?x110) ?x44))))
(or (and (or (and $x113 $x265) (or $x384 (or $x427 $x481))) $x805) $x1379))))))))))))))))))))))))))))))))))))))))))))))))))))))))))))))))))))))))))))))))))))))))))))))))))))))))))))))))))))))))))))))))))))))))))))))))))))))))))))))))))))))))))))))))))))))))))))))))))))))))))))))))))))))))))))))))))))))))))))))))))))))))))))))))))))))))))))))))))))))))))))))))))))))))))))))))))))))))))))))))))))))))))))))))))))))))
)
)
)
)
)
)
)
)
)
)
)
)
)
)
)
)
)
)
(check-sat)
(exit)

